
Value of objective function: 0

Actual values of the variables:
pL1_div_from_law                0
comp_pos0                       0
comp_neg0                       0
comp_pos1                       0
comp_neg1                       0
comp_pos2                       0
comp_neg2                       0
comp_pos3                       0
comp_neg3                       0
comp_pos4                       0
comp_neg4                       0
comp_pos5                       0
comp_neg5                       0
comp_pos6                       0
comp_neg6                       0
comp_pos7                       0
comp_neg7                       0
comp_pos8                       0
comp_neg8                       0
comp_pos9                       0
comp_neg9                       0
comp_pos10                      0
comp_neg10                      0
comp_pos11                      0
comp_neg11                      0
comp_pos12                      0
comp_neg12                      0
comp_pos13                      0
comp_neg13                      0
z_c0_t0               1.32138e+10
p0_c0_t0              3.29964e+09
p1_c0_t0              3.60751e+09
p2_c0_t0              5.50851e+09
p3_c0_t0              7.98169e+08
diff0                           0
normdiff0                       0
z_c0_t1               1.47752e+10
p0_c0_t1              2.83854e+09
p1_c0_t1              4.00547e+09
p2_c0_t1              6.65324e+09
p3_c0_t1              1.27794e+09
diff1                           0
normdiff1                       0
z_c1_t0               1.65566e+10
p0_c1_t0              3.33617e+09
p1_c1_t0              4.63534e+09
p2_c1_t0              8.28297e+09
p3_c1_t0              3.02092e+08
diff2                           0
normdiff2                       0
z_c1_t1               1.94959e+10
p0_c1_t1              3.36186e+09
p1_c1_t1              6.59437e+09
p2_c1_t1              9.08314e+09
p3_c1_t1               4.5651e+08
diff3                           0
normdiff3                       0
z_c2_t0               7.24754e+09
p0_c2_t0              1.13827e+09
p1_c2_t0              1.89152e+09
p2_c2_t0              3.95071e+09
p3_c2_t0              2.67044e+08
diff4                           0
normdiff4                       0
z_c2_t1               7.97123e+09
p0_c2_t1              9.14795e+08
p1_c2_t1              2.21095e+09
p2_c2_t1              4.53603e+09
p3_c2_t1              3.09453e+08
diff5                           0
normdiff5                       0
z_c3_t0               1.22612e+10
p0_c3_t0              2.05939e+09
p1_c3_t0              3.23378e+09
p2_c3_t0              5.83806e+09
p3_c3_t0              1.12995e+09
diff6                           0
normdiff6                       0
z_c3_t1               1.42798e+10
p0_c3_t1              2.30608e+09
p1_c3_t1              3.31178e+09
p2_c3_t1              6.09776e+09
p3_c3_t1              2.56415e+09
diff7                           0
normdiff7                       0
z_c4_t0               7.97197e+09
p0_c4_t0              9.08965e+08
p1_c4_t0              3.61863e+09
p2_c4_t0              3.22999e+09
p3_c4_t0              2.14388e+08
diff8                           0
normdiff8                       0
z_c4_t1                8.9819e+09
p0_c4_t1               9.3051e+08
p1_c4_t1              3.29847e+09
p2_c4_t1              4.54168e+09
p3_c4_t1              2.11239e+08
diff9                           0
normdiff9                       0
z_c5_t0               1.00642e+10
p0_c5_t0              1.60293e+09
p1_c5_t0              3.02306e+09
p2_c5_t0              5.34892e+09
p3_c5_t0              8.92429e+07
diff10                          0
normdiff10                      0
z_c5_t1                1.2016e+10
p0_c5_t1               1.1709e+09
p1_c5_t1              3.02436e+09
p2_c5_t1              7.15323e+09
p3_c5_t1              6.67516e+08
diff11                          0
normdiff11                      0
z_c6_t0               1.81204e+10
p0_c6_t0              2.92682e+09
p1_c6_t0              3.85735e+09
p2_c6_t0              1.07768e+10
p3_c6_t0              5.59343e+08
diff12                          0
normdiff12                      0
z_c6_t1               2.06345e+10
p0_c6_t1              3.11565e+09
p1_c6_t1              3.50056e+09
p2_c6_t1              1.34513e+10
p3_c6_t1              5.66983e+08
diff13                          0
normdiff13                      0
